1437.32 0
0 49 52 63 66 65 64 53 48 36 41 50 0
0 70 40 25 33 23 16 27 34 30 17 0
0 73 72 56 57 60 55 54 68 74 4 0
0 13 51 37 32 29 21 20 19 28 24 26 31 39 0
0 45 46 18 15 22 44 71 14 0
0 1 3 8 0
0 9 11 62 61 59 58 67 69 35 10 5 6 0
0 12 42 43 38 2 0
0 47 75 7 0
